(set-info :smt-lib-version 2.6)
(set-logic QF_UFLRA)
(set-info :source |
MathSat group

|)
(set-info :category "random")
(set-info :status sat)
(declare-fun x0 () Real)
(declare-fun x1 () Real)
(declare-fun x2 () Real)
(declare-fun x3 () Real)
(declare-fun x4 () Real)
(declare-fun x5 () Real)
(declare-fun x6 () Real)
(declare-fun x7 () Real)
(declare-fun x8 () Real)
(declare-fun x9 () Real)
(declare-fun x10 () Real)
(declare-fun x11 () Real)
(declare-fun x12 () Real)
(declare-fun x13 () Real)
(declare-fun x14 () Real)
(declare-fun x15 () Real)
(declare-fun x16 () Real)
(declare-fun x17 () Real)
(declare-fun x18 () Real)
(declare-fun x19 () Real)
(declare-fun x20 () Real)
(declare-fun x21 () Real)
(declare-fun x22 () Real)
(declare-fun x23 () Real)
(declare-fun x24 () Real)
(declare-fun x25 () Real)
(declare-fun x26 () Real)
(declare-fun x27 () Real)
(declare-fun x28 () Real)
(declare-fun x29 () Real)
(declare-fun f0_1 (Real) Real)
(declare-fun f0_2 (Real Real) Real)
(declare-fun f0_3 (Real Real Real) Real)
(declare-fun f0_4 (Real Real Real Real) Real)
(declare-fun P0 () Bool)
(declare-fun P1 () Bool)
(declare-fun P2 () Bool)
(declare-fun P3 () Bool)
(declare-fun P4 () Bool)
(declare-fun P5 () Bool)
(declare-fun P6 () Bool)
(declare-fun P7 () Bool)
(declare-fun P8 () Bool)
(declare-fun P9 () Bool)
(declare-fun P10 () Bool)
(declare-fun P11 () Bool)
(declare-fun P12 () Bool)
(declare-fun P13 () Bool)
(declare-fun P14 () Bool)
(declare-fun P15 () Bool)
(declare-fun P16 () Bool)
(declare-fun P17 () Bool)
(declare-fun P18 () Bool)
(declare-fun P19 () Bool)
(declare-fun P20 () Bool)
(declare-fun P21 () Bool)
(declare-fun P22 () Bool)
(declare-fun P23 () Bool)
(declare-fun P24 () Bool)
(declare-fun P25 () Bool)
(declare-fun P26 () Bool)
(declare-fun P27 () Bool)
(declare-fun P28 () Bool)
(declare-fun P29 () Bool)
(assert (let ((?v_11 (<= (+ (- (* 15 x6) (* 41 x15)) (* 3 x18)) 12)) (?v_92 (= (- (+ (* 34 x16) (* 20 x10)) (* 5 x29)) 41)) (?v_19 (* 35 x19)) (?v_8 (< (+ (- (* 11 x4) (* 8 x9)) (* 24 x26)) 17)) (?v_111 (= (- (+ (* 14 x16) (* 7 x24)) (* 37 x27)) 3)) (?v_33 (= (- (+ (* 8 x18) (* 33 x21)) (* 42 x7)) 11)) (?v_20 (<= (- (- (* 19 x5) (* 39 x16)) (* 27 x18)) 43)) (?v_143 (<= (+ (- (* 36 x13) (* 34 x20)) (* 4 x23)) 3)) (?v_6 (distinct (- (+ (* 18 x1) (* 18 x13)) (* 34 x28)) 16)) (?v_60 (distinct x13 (f0_1 x13))) (?v_29 (f0_1 x2))) (let ((?v_121 (distinct x11 ?v_29)) (?v_71 (distinct (f0_2 x9 x0) ?v_29)) (?v_22 (f0_1 x18))) (let ((?v_39 (distinct x24 ?v_22)) (?v_30 (f0_1 x24))) (let ((?v_59 (distinct ?v_30 x16)) (?v_10 (f0_1 x12))) (let ((?v_47 (= x26 ?v_10)) (?v_2 (= (f0_2 x28 x6) (f0_2 x7 x20))) (?v_36 (distinct x25 (f0_2 x26 x12))) (?v_24 (distinct (f0_1 x10) (f0_2 x9 x7))) (?v_106 (distinct (f0_2 x23 x7) (f0_2 x26 x6))) (?v_52 (f0_1 x29))) (let ((?v_102 (= ?v_52 (f0_1 x5))) (?v_88 (= (f0_2 x22 x22) (f0_2 x16 x0))) (?v_84 (distinct x12 x29)) (?v_69 (distinct (f0_2 x28 x4) x0)) (?v_45 (= x29 (f0_2 x14 x25))) (?v_28 (distinct (f0_1 x11) (f0_2 x29 x28))) (?v_81 (distinct (f0_2 x28 x9) ?v_52)) (?v_62 (distinct x19 (f0_1 x7))) (?v_110 (= (f0_2 x20 x27) (f0_2 x18 x26))) (?v_85 (= x28 (f0_1 x15))) (?v_9 (f0_1 x9))) (let ((?v_133 (= ?v_9 ?v_10)) (?v_16 (f0_1 x17))) (let ((?v_96 (= ?v_16 (f0_2 x6 x17))) (?v_15 (= (f0_2 x29 x21) ?v_22)) (?v_57 (= ?v_30 x22)) (?v_14 (f0_1 x20))) (let ((?v_40 (distinct (f0_1 x6) ?v_14)) (?v_17 (distinct x25 (f0_2 x14 x20))) (?v_140 (= x16 ?v_14)) (?v_3 (distinct (f0_1 x16) ?v_16)) (?v_65 (distinct ?v_9 x17)) (?v_34 (distinct (f0_2 x2 x3) ?v_16)) (?v_137 (not P24)) (?v_0 (not ?v_110)) (?v_25 (not P21)) (?v_5 (not P23)) (?v_31 (not P18)) (?v_1 (not ?v_60)) (?v_35 (not ?v_15)) (?v_118 (not ?v_2)) (?v_7 (not P11))) (let ((?v_48 (not ?v_3)) (?v_128 (not ?v_92)) (?v_26 (not ?v_71)) (?v_55 (not P17)) (?v_50 (not P29)) (?v_32 (not P28)) (?v_117 (not P15)) (?v_75 (not ?v_102)) (?v_83 (not ?v_140)) (?v_78 (not P10)) (?v_130 (not ?v_6)) (?v_100 (not ?v_65)) (?v_113 (not ?v_133)) (?v_82 (not ?v_62)) (?v_21 (not P27)) (?v_139 (not P8)) (?v_95 (not ?v_88)) (?v_61 (not ?v_33)) (?v_114 (not P13)) (?v_131 (not ?v_143)) (?v_76 (not ?v_34)) (?v_79 (not ?v_17)) (?v_80 (not ?v_20)) (?v_68 (not ?v_24)) (?v_116 (not ?v_121)) (?v_42 (not P26))) (let ((?v_115 (or ?v_25 ?v_42)) (?v_58 (not ?v_28)) (?v_53 (not P9)) (?v_105 (not P20)) (?v_126 (not ?v_36)) (?v_63 (not ?v_96)) (?v_54 (not ?v_45)) (?v_49 (not P4)) (?v_104 (not P3)) (?v_108 (not P25)) (?v_91 (not ?v_57)) (?v_127 (not P2)) (?v_107 (not ?v_59)) (?v_97 (not P1)) (?v_120 (not ?v_8)) (?v_89 (not P16)) (?v_132 (or ?v_75 P28)) (?v_149 (not ?v_40)) (?v_93 (not ?v_81)) (?v_99 (not ?v_69)) (?v_103 (not ?v_111)) (?v_98 (not P19)) (?v_141 (not ?v_106))) (let ((?v_142 (or ?v_83 ?v_97)) (?v_135 (not P6)) (?v_148 (not P0)) (?v_157 (or ?v_83 P21)) (?v_134 (not P12)) (?v_145 (not P5)) (?v_156 (not P22)) (?v_154 (not ?v_85)) (?v_155 (not ?v_39)) (?v_158 (not ?v_84)) (?v_159 (not P7)) (?v_66 (< (+ ?v_19 (* 37 x11) (* 8 x27)) 14)) (?v_64 (< (- (* 30 x4) (* 12 x13)) 13))) (let ((?v_147 (not ?v_64)) (?v_122 (not ?v_66)) (?v_125 (= (+ (* (- 2) x26) (* 38 x4) (* 8 x22)) 14))) (let ((?v_70 (not ?v_125)) (?v_56 (< (+ (- (* 31 x29) (* 15 x23)) (* 40 x3)) (- 37)))) (let ((?v_38 (not ?v_56)) (?v_4 (<= (+ (* 28 x12) (* 6 x4) (* 15 x13)) (- 24))) (?v_87 (<= (- (- (* (- 35) x21) (* 30 x8)) (* 34 x12)) 35)) (?v_44 (<= (+ (* (- 22) x25) (* 41 x3) (* 29 x28)) 39))) (let ((?v_12 (not ?v_4)) (?v_150 (= (+ (- (* 13 x5) (* 28 x23)) (* 2 x12)) (- 22)))) (let ((?v_23 (not ?v_150)) (?v_41 (<= (- (- (* 39 x15) (* 17 x5)) x7) (- 17))) (?v_13 (< (- (- (* (- 18) x22) (* 10 x14)) (* 31 x27)) 44)) (?v_18 (* (- 8) x27))) (let ((?v_151 (< (- (- ?v_18 (* 20 x12)) (* 32 x29)) (- 24)))) (let ((?v_51 (not ?v_151)) (?v_101 (<= (- (+ (* (- 19) x26) (* 14 x4)) (* 7 x22)) 4)) (?v_46 (< (+ (- (* 40 x8) (* 20 x23)) (* 7 x6)) (- 21))) (?v_37 (<= (- (+ ?v_18 (* 20 x9)) ?v_19) (- 25))) (?v_27 (<= (- (+ (* (- 14) x8) (* 12 x7)) (* 42 x27)) (- 22)))) (let ((?v_72 (not ?v_27)) (?v_43 (< (+ (- (* (- 30) x6) x10) (* 5 x26)) (- 33)))) (let ((?v_119 (not ?v_43)) (?v_67 (not ?v_37)) (?v_73 (not ?v_46)) (?v_74 (distinct (+ (- (* (- 23) x4) (* 4 x9)) (* 19 x15)) 23)) (?v_144 (<= (- (+ (* (- 25) x29) (* 22 x11)) (* 18 x4)) 20))) (let ((?v_112 (not ?v_144)) (?v_90 (< (- (+ (* (- 31) x27) (* 32 x23)) (* 29 x10)) (- 25)))) (let ((?v_77 (not ?v_90)) (?v_129 (not ?v_74)) (?v_123 (= (+ (- (* (- 41) x6) (* 38 x8)) (* 27 x29)) 0))) (let ((?v_94 (not ?v_123)) (?v_86 (< (+ (* (- 21) x2) (* 19 x13) (* 29 x2)) 39))) (let ((?v_152 (not ?v_86)) (?v_124 (not ?v_101)) (?v_109 (<= (+ (- (* (- 39) x13) (* 38 x3)) (* 23 x28)) (- 33)))) (let ((?v_136 (not ?v_109)) (?v_138 (not ?v_41)) (?v_153 (not ?v_44)) (?v_146 (not ?v_87))) (and (and (and (and (and (and (and (and (and (and (and (and (and (and (and (and (and (and (and (and (and (and (and (and (and (and (and (and (and (and (and (and (and (and (and (and (and (and (and (and (and (and (and (and (and (and (and (and (and (and (and (and (and (and (and (and (and (and (and (and (and (and (and (and (and (and (and (and (and (and (and (and (and (and (and (and (and (and (and (and (and (and (and (and (and (and (and (and (and (and (and (and (and (and (and (and (and (and (and (and (and (and (and (and (and (and (and (and (and (and (and (and (and (and (and (and (and (and (and (and (and (and (and (and (and (and (and (and (and (and (and (and (and (and (and (and (and (and (and (and (and (and (and (and (and (and (and (and (and (and (and (and (and (and (and (and (and (and (and (and (and (and (and (and (and (and (and (and (and (and (and (and (and (and (and (and (and (and (and (and (and (and (and (and (and (and (and (and (and (and (and (and (and (and (and (and (and (and (and (and (and (and (and (and (and (and (and (and (and (and (and (and (and (and (and (and (and (and (and (and (and (and (and (and (and (and (and (and (and (and (and (and (and (and (and (and (and (and (and (and (and (and (and (and (and (and (and (and (and (and (and (and (and (and (and (and (and (and (and (and (and (and (and (and (and (and (and (and (and (and (and (and (and (and (and (and (and (and (and (and (and (and (and (and (and (and (and (and (and (and (and (and (and (and (and (and (and (and (and (and (and (and (and (and (and (and (and (and (and (and (and (and (and (and (and (and (and (and (and (and (and (and (and (and (and (and (and (and (and (and (and (and (and (and (and (and (and (and (and (and (and (and (and (and (and (and (and (and (and (and (and (and (and (and (and (and (and (and (and (or (or ?v_137 P19) ?v_2) (or (or ?v_0 ?v_0) ?v_6)) (or (or ?v_70 ?v_25) ?v_17)) (or (or ?v_38 ?v_5) ?v_31)) (or (or ?v_4 P12) ?v_1)) (or (or ?v_24 ?v_1) ?v_36)) (or (or ?v_87 ?v_35) ?v_118)) (or (or P23 ?v_7) ?v_3)) (or (or ?v_48 ?v_128) ?v_57)) (or (or ?v_26 P7) ?v_20)) (or (or (not ?v_47) P21) ?v_44)) (or (or P14 ?v_11) ?v_2)) (or (or ?v_55 ?v_12) P14)) (or (or ?v_8 ?v_50) ?v_32)) (or (or ?v_5 ?v_117) ?v_23)) (or (or ?v_75 ?v_83) P18)) (or (or ?v_45 ?v_78) ?v_130)) (or (or ?v_7 ?v_7) ?v_8)) (or (or ?v_100 ?v_113) ?v_82)) (or (or ?v_11 P25) ?v_66)) (or (or ?v_41 ?v_84) ?v_21)) (or (or ?v_28 (not ?v_13)) ?v_139)) (or (or ?v_95 ?v_61) ?v_12)) (or (or ?v_51 P10) ?v_101)) (or (or ?v_13 (not P14)) ?v_114)) (or (or P7 ?v_131) ?v_13)) (or (or ?v_40 ?v_46) ?v_15)) (or (or ?v_76 ?v_3) ?v_79)) (or (or P29 ?v_37) ?v_27)) (or (or P15 P12) ?v_80)) (or (or ?v_21 ?v_39) ?v_23)) (or (or ?v_68 ?v_25) ?v_7)) (or (or ?v_26 P14) ?v_72)) (or (or P12 ?v_69) ?v_28)) (or (or ?v_116 P7) ?v_5)) (or (or ?v_59 ?v_11) ?v_31)) (or (or ?v_32 ?v_33) P19)) (or ?v_115 ?v_34)) (or (or ?v_119 ?v_3) ?v_35)) (or (or ?v_0 ?v_58) ?v_17)) (or (or ?v_31 ?v_53) ?v_85)) (or (or ?v_147 P8) P2)) (or (or ?v_31 ?v_36) ?v_67)) (or (or P8 ?v_38) ?v_6)) (or (or ?v_39 ?v_40) ?v_41)) (or (or ?v_37 ?v_42) ?v_105)) (or (or ?v_43 ?v_25) ?v_40)) (or (or ?v_126 ?v_25) ?v_63)) (or (or ?v_44 ?v_54) ?v_43)) (or (or ?v_39 P7) ?v_49)) (or (or ?v_73 ?v_47) ?v_48)) (or (or ?v_49 ?v_50) ?v_23)) (or (or ?v_74 ?v_25) ?v_51)) (or (or ?v_112 ?v_81) ?v_53)) (or (or ?v_54 ?v_40) ?v_17)) (or (or ?v_48 ?v_55) ?v_106)) (or (or P17 ?v_4) ?v_56)) (or (or ?v_5 ?v_38) ?v_104)) (or (or ?v_108 ?v_91) ?v_58)) (or (or ?v_127 ?v_5) ?v_12)) (or (or ?v_107 ?v_8) ?v_60)) (or (or ?v_47 P9) ?v_61)) (or (or P21 ?v_62) ?v_23)) (or (or ?v_2 ?v_63) ?v_64)) (or (or ?v_2 ?v_33) ?v_97)) (or (or ?v_23 ?v_23) ?v_65)) (or (or ?v_66 P29) P9)) (or (or ?v_77 ?v_12) ?v_67)) (or (or ?v_35 ?v_68) ?v_27)) (or (or ?v_69 ?v_120) ?v_11)) (or (or ?v_60 ?v_70) ?v_71)) (or (or P4 ?v_72) ?v_73)) (or (or ?v_0 ?v_129) ?v_89)) (or ?v_132 ?v_76)) (or (or ?v_77 ?v_149) ?v_26)) (or (or ?v_39 ?v_94) ?v_7)) (or (or P24 ?v_78) ?v_48)) (or (or ?v_28 ?v_79) ?v_1)) (or (or ?v_80 ?v_93) ?v_152)) (or (or ?v_68 ?v_82) ?v_99)) (or (or ?v_83 P28) ?v_103)) (or (or ?v_84 ?v_83) ?v_38)) (or (or P19 ?v_50) P25)) (or (or ?v_40 ?v_5) P27)) (or (or ?v_85 ?v_86) P20)) (or (or ?v_87 ?v_88) ?v_26)) (or (or P4 ?v_56) ?v_3)) (or (or ?v_0 ?v_77) ?v_74)) (or (or ?v_89 ?v_13) ?v_41)) (or (or ?v_33 ?v_90) ?v_0)) (or (or ?v_91 ?v_92) ?v_68)) (or (or ?v_13 ?v_50) ?v_31)) (or (or ?v_1 ?v_32) ?v_122)) (or (or ?v_35 ?v_23) P1)) (or (or ?v_72 ?v_33) ?v_43)) (or (or P21 P14) P8)) (or (or P6 ?v_28) ?v_1)) (or (or P2 P2) ?v_49)) (or (or ?v_68 ?v_69) P2)) (or (or ?v_74 ?v_98) ?v_93)) (or (or ?v_94 ?v_36) ?v_95)) (or (or ?v_96 ?v_37) ?v_35)) (or (or ?v_11 P10) ?v_97)) (or (or ?v_20 P23) ?v_98)) (or (or P24 ?v_99) ?v_43)) (or (or ?v_24 P25) ?v_17)) (or (or ?v_51 ?v_100) ?v_47)) (or (or ?v_96 ?v_1) ?v_31)) (or (or ?v_89 P17) ?v_88)) (or (or ?v_124 ?v_53) ?v_78)) (or (or ?v_50 ?v_136) ?v_61)) (or (or ?v_86 ?v_102) ?v_103)) (or (or ?v_96 ?v_53) ?v_70)) (or (or ?v_55 ?v_7) P12)) (or (or P10 ?v_104) ?v_105)) (or (or ?v_106 ?v_99) ?v_85)) (or (or ?v_106 ?v_107) P23)) (or (or ?v_12 ?v_94) ?v_108)) (or (or ?v_109 ?v_43) ?v_83)) (or (or P7 ?v_108) P19)) (or (or ?v_40 ?v_33) ?v_88)) (or (or P9 ?v_110) ?v_102)) (or (or ?v_109 ?v_93) ?v_72)) (or (or ?v_111 ?v_112) ?v_90)) (or (or ?v_97 ?v_113) P2)) (or (or P9 ?v_114) ?v_141)) (or (or P22 ?v_53) ?v_13)) (or ?v_115 ?v_116)) (or (or ?v_85 ?v_117) ?v_118)) (or (or P2 ?v_21) P20)) (or ?v_142 ?v_119)) (or (or ?v_120 ?v_47) ?v_102)) (or (or P25 P8) ?v_121)) (or (or ?v_122 ?v_17) ?v_123)) (or (or ?v_87 ?v_108) ?v_135)) (or (or ?v_74 ?v_57) P6)) (or (or ?v_85 ?v_42) ?v_80)) (or (or ?v_100 P23) ?v_28)) (or (or ?v_116 ?v_17) ?v_148)) (or (or P13 ?v_123) ?v_124)) (or (or ?v_99 ?v_107) ?v_53)) (or (or ?v_90 ?v_33) P7)) (or (or ?v_45 ?v_25) ?v_91)) (or (or ?v_106 P29) ?v_23)) (or ?v_157 ?v_62)) (or (or ?v_33 ?v_125) ?v_76)) (or (or ?v_76 ?v_83) ?v_126)) (or (or ?v_107 ?v_39) ?v_25)) (or (or ?v_34 ?v_92) ?v_38)) (or (or ?v_78 ?v_75) ?v_127)) (or (or ?v_67 ?v_138) ?v_50)) (or (or ?v_56 ?v_109) ?v_33)) (or (or ?v_128 ?v_111) ?v_129)) (or (or ?v_2 ?v_72) ?v_62)) (or (or ?v_62 ?v_34) ?v_70)) (or (or ?v_86 ?v_134) ?v_34)) (or (or ?v_102 ?v_60) ?v_49)) (or (or ?v_26 ?v_114) P3)) (or (or P8 P8) P27)) (or (or P5 ?v_129) ?v_130)) (or (or ?v_79 P11) P4)) (or (or P2 ?v_107) ?v_62)) (or (or P28 P6) ?v_84)) (or (or ?v_108 ?v_54) ?v_118)) (or (or ?v_25 ?v_25) ?v_90)) (or (or ?v_127 ?v_7) ?v_131)) (or ?v_132 ?v_133)) (or (or ?v_1 ?v_118) ?v_113)) (or (or ?v_35 ?v_38) ?v_109)) (or (or P8 ?v_28) ?v_95)) (or (or ?v_39 P10) ?v_65)) (or (or ?v_124 ?v_96) ?v_130)) (or (or ?v_44 ?v_134) ?v_79)) (or (or ?v_123 ?v_135) P21)) (or (or ?v_27 ?v_114) ?v_109)) (or (or ?v_15 ?v_54) ?v_98)) (or (or ?v_88 ?v_62) ?v_0)) (or (or ?v_123 P26) ?v_153)) (or (or P17 ?v_113) P19)) (or (or ?v_85 ?v_57) ?v_51)) (or (or ?v_55 ?v_106) ?v_136)) (or (or ?v_123 ?v_137) ?v_138)) (or (or ?v_68 ?v_98) ?v_27)) (or (or ?v_21 ?v_86) ?v_33)) (or (or ?v_133 ?v_139) ?v_127)) (or (or P4 ?v_69) ?v_35)) (or (or ?v_26 ?v_39) ?v_64)) (or (or ?v_122 ?v_67) ?v_90)) (or (or ?v_12 ?v_110) ?v_36)) (or (or ?v_102 ?v_26) ?v_108)) (or (or ?v_38 ?v_128) ?v_71)) (or (or ?v_123 ?v_140) ?v_93)) (or (or ?v_56 ?v_1) ?v_79)) (or (or P20 ?v_46) ?v_57)) (or (or ?v_127 P6) ?v_73)) (or (or ?v_66 ?v_53) ?v_121)) (or (or ?v_139 P28) ?v_126)) (or (or P9 ?v_75) ?v_103)) (or (or ?v_137 P15) P13)) (or (or ?v_141 P2) P7)) (or (or ?v_57 ?v_61) ?v_103)) (or (or ?v_74 P3) ?v_70)) (or (or ?v_79 ?v_72) P16)) (or (or P8 ?v_81) ?v_12)) (or (or ?v_93 ?v_89) ?v_94)) (or (or ?v_2 P20) P24)) (or (or ?v_31 ?v_33) ?v_139)) (or (or ?v_73 P3) ?v_2)) (or (or ?v_124 ?v_81) P25)) (or (or ?v_125 ?v_37) ?v_133)) (or ?v_142 ?v_81)) (or (or ?v_145 ?v_125) ?v_17)) (or (or ?v_146 P13) ?v_156)) (or (or ?v_48 ?v_43) ?v_8)) (or (or ?v_143 ?v_144) ?v_135)) (or (or ?v_145 ?v_66) P22)) (or (or ?v_64 ?v_93) ?v_128)) (or (or ?v_136 ?v_79) ?v_38)) (or (or ?v_104 ?v_104) ?v_125)) (or (or ?v_33 P25) ?v_143)) (or (or ?v_47 ?v_58) ?v_129)) (or (or ?v_55 ?v_146) ?v_0)) (or (or ?v_63 ?v_8) ?v_33)) (or (or ?v_103 P20) ?v_68)) (or (or ?v_39 ?v_100) ?v_144)) (or (or ?v_33 ?v_138) ?v_136)) (or (or ?v_25 ?v_59) ?v_42)) (or (or ?v_5 ?v_135) ?v_81)) (or (or ?v_38 ?v_138) ?v_33)) (or (or ?v_92 ?v_64) ?v_85)) (or (or ?v_71 ?v_63) ?v_133)) (or (or P19 ?v_36) ?v_63)) (or (or P1 ?v_86) ?v_38)) (or (or P19 ?v_147) ?v_148)) (or (or P22 ?v_104) ?v_128)) (or (or ?v_122 ?v_65) ?v_120)) (or (or ?v_114 ?v_1) P20)) (or (or ?v_11 ?v_32) P7)) (or (or ?v_36 ?v_96) ?v_133)) (or (or ?v_49 ?v_51) ?v_106)) (or (or ?v_66 ?v_98) ?v_63)) (or (or ?v_149 ?v_91) P23)) (or (or P10 ?v_1) ?v_148)) (or (or ?v_116 ?v_150) ?v_69)) (or (or ?v_60 P24) ?v_99)) (or (or P8 ?v_24) P12)) (or (or P6 P19) ?v_42)) (or (or ?v_103 ?v_32) ?v_75)) (or (or ?v_82 ?v_128) ?v_31)) (or (or ?v_26 ?v_71) ?v_140)) (or (or ?v_131 ?v_45) ?v_134)) (or (or P20 ?v_79) ?v_102)) (or (or ?v_4 P24) ?v_154)) (or (or ?v_95 ?v_105) P1)) (or (or ?v_15 ?v_34) ?v_88)) (or (or ?v_131 ?v_54) ?v_151)) (or (or ?v_24 ?v_135) ?v_12)) (or (or ?v_147 ?v_31) ?v_66)) (or (or ?v_88 P23) ?v_152)) (or (or ?v_8 ?v_2) ?v_25)) (or (or ?v_83 ?v_72) ?v_101)) (or (or ?v_111 ?v_4) P15)) (or (or ?v_89 ?v_97) ?v_134)) (or (or ?v_67 ?v_85) ?v_155)) (or (or ?v_139 P16) ?v_6)) (or (or P1 ?v_85) ?v_84)) (or (or P6 ?v_152) ?v_146)) (or (or P18 P26) ?v_50)) (or (or ?v_1 ?v_12) ?v_145)) (or (or ?v_21 ?v_32) P29)) (or (or P29 ?v_152) ?v_114)) (or (or ?v_2 ?v_50) ?v_79)) (or (or ?v_42 ?v_70) ?v_40)) (or (or P1 ?v_103) P13)) (or (or ?v_146 ?v_67) ?v_64)) (or (or ?v_153 ?v_6) ?v_63)) (or (or ?v_2 ?v_41) ?v_103)) (or (or ?v_100 ?v_70) ?v_23)) (or (or ?v_147 ?v_69) P29)) (or (or ?v_158 ?v_127) ?v_41)) (or (or ?v_87 P15) P25)) (or (or ?v_103 ?v_68) ?v_101)) (or (or ?v_121 ?v_153) ?v_62)) (or (or ?v_134 ?v_114) ?v_110)) (or (or ?v_102 ?v_146) ?v_57)) (or (or ?v_24 ?v_153) P17)) (or (or ?v_112 ?v_154) ?v_111)) (or (or ?v_45 ?v_0) ?v_21)) (or (or ?v_4 ?v_125) ?v_20)) (or (or ?v_12 ?v_123) P24)) (or (or ?v_131 ?v_67) ?v_70)) (or (or ?v_76 ?v_100) ?v_12)) (or (or ?v_31 ?v_45) ?v_46)) (or (or ?v_146 ?v_41) ?v_55)) (or (or ?v_27 ?v_97) ?v_7)) (or (or ?v_0 P9) ?v_107)) (or (or ?v_47 ?v_93) ?v_54)) (or (or ?v_5 ?v_129) P3)) (or (or ?v_105 ?v_111) P2)) (or (or ?v_32 P11) ?v_97)) (or (or ?v_48 ?v_2) ?v_100)) (or (or ?v_4 P25) ?v_63)) (or (or ?v_44 P2) ?v_0)) (or (or ?v_98 ?v_83) ?v_93)) (or (or ?v_33 P6) ?v_99)) (or (or ?v_93 ?v_48) ?v_151)) (or (or ?v_134 ?v_48) ?v_155)) (or (or ?v_6 ?v_147) ?v_90)) (or (or ?v_134 ?v_93) ?v_60)) (or (or ?v_68 ?v_54) ?v_23)) (or (or ?v_147 ?v_73) ?v_15)) (or (or ?v_109 ?v_31) ?v_27)) (or (or ?v_78 ?v_106) ?v_130)) (or (or ?v_93 ?v_153) ?v_76)) (or (or ?v_70 ?v_130) ?v_33)) (or (or ?v_80 ?v_98) P16)) (or (or ?v_58 ?v_133) P1)) (or (or ?v_35 ?v_156) P1)) (or (or P3 ?v_103) P17)) (or (or ?v_149 P5) ?v_21)) (or (or ?v_122 P2) ?v_131)) (or (or P3 ?v_78) ?v_131)) (or (or ?v_138 ?v_117) ?v_90)) (or (or ?v_133 ?v_69) ?v_136)) (or (or P20 ?v_111) ?v_128)) (or (or ?v_141 ?v_139) ?v_64)) (or ?v_157 ?v_48)) (or (or ?v_20 ?v_107) P12)) (or (or ?v_150 ?v_7) ?v_75)) (or (or ?v_40 P8) P9)) (or (or P13 ?v_156) ?v_74)) (or (or ?v_53 ?v_128) ?v_75)) (or (or ?v_123 ?v_63) ?v_28)) (or (or P8 ?v_59) ?v_62)) (or (or ?v_145 ?v_92) ?v_50)) (or (or ?v_84 P24) P28)) (or (or ?v_119 ?v_51) P14)) (or (or ?v_102 ?v_158) P23)) (or (or (not ?v_11) ?v_46) ?v_80)) (or (or ?v_128 ?v_107) ?v_67)) (or (or P5 ?v_0) ?v_54)) (or (or ?v_8 ?v_11) ?v_133)) (or (or P20 ?v_1) ?v_111)) (or (or P17 ?v_156) ?v_159)) (or (or ?v_159 P18) ?v_116)) (or (or ?v_93 ?v_37) ?v_45)) (or (or ?v_58 ?v_25) ?v_53)) (or (or ?v_104 ?v_141) P17)) (or (or ?v_2 P2) ?v_68)) (or (or P7 ?v_65) ?v_0)) (or (or ?v_24 ?v_0) ?v_12)) (or (or ?v_135 ?v_64) P19)) (or (or P22 ?v_133) ?v_0)) (or (or ?v_124 ?v_37) P6)) (or (or ?v_64 ?v_101) ?v_6)) (or (or ?v_124 ?v_4) ?v_8)) (or (or ?v_15 ?v_13) P3)) (or (or ?v_48 ?v_110) ?v_158)) (or (or P12 ?v_122) ?v_141)) (or (or ?v_57 ?v_103) P3)))))))))))))))))))))))))))))
(check-sat)
(exit)
